
******************************************************************************
This program contains Ipopt, a library for large-scale nonlinear optimization.
 Ipopt is released as open source code under the Eclipse Public License (EPL).
         For more information visit http://projects.coin-or.org/Ipopt
******************************************************************************

This is Ipopt version 3.12.6, running with linear solver ma57.

Number of nonzeros in equality constraint Jacobian...:        0
Number of nonzeros in inequality constraint Jacobian.:     3006
Number of nonzeros in Lagrangian Hessian.............:        3

Total number of variables............................:        3
                     variables with only lower bounds:        0
                variables with lower and upper bounds:        0
                     variables with only upper bounds:        0
Total number of equality constraints.................:        0
Total number of inequality constraints...............:     1002
        inequality constraints with only lower bounds:     1002
   inequality constraints with lower and upper bounds:        0
        inequality constraints with only upper bounds:        0

iter    objective    inf_pr   inf_du lg(mu)  ||d||  lg(rg) alpha_du alpha_pr  ls
   0  0.0000000e+00 2.00e+00 9.98e-01  -1.0 0.00e+00    -  0.00e+00 0.00e+00   0
   1  8.0842607e-03 1.99e+00 1.88e+00  -1.0 8.01e-01  -4.0 2.24e-02 1.24e-02h  1
   2 -5.4892264e-03 1.95e+00 3.74e+01  -1.0 1.97e+02   0.0 2.98e-02 6.00e-03f  1
   3  6.9711991e-01 1.91e+03 7.48e+06  -1.0 1.53e+01    -  2.41e-02 1.00e+00f  1
   4  7.1362254e-01 1.91e+03 7.48e+06  -1.0 6.94e+02    -  1.75e-05 1.34e-04h  1
   5  7.1708985e-01 1.91e+03 7.48e+06  -1.0 5.74e+01    -  8.19e-04 1.45e-04h  1
   6  7.1797979e-01 1.91e+03 7.48e+06  -1.0 5.62e+01    -  3.65e-05 3.37e-05h  1
   7  7.2292233e-01 1.91e+03 7.48e+06  -1.0 7.07e+01    -  9.55e-06 1.61e-04f  1
   8  7.2337417e-01 1.91e+03 7.48e+06  -1.0 5.08e+01    -  4.06e-05 1.79e-05h  1
   9  7.2955907e-01 1.91e+03 7.48e+06  -1.0 7.04e+01    -  1.01e-06 1.96e-04f  1
iter    objective    inf_pr   inf_du lg(mu)  ||d||  lg(rg) alpha_du alpha_pr  ls
  10  7.2989190e-01 1.91e+03 7.48e+06  -1.0 5.53e+01    -  5.75e-05 1.22e-05h  1
  11  7.3935647e-01 1.91e+03 7.47e+06  -1.0 6.68e+01    -  7.95e-07 3.03e-04f  1
  12r 7.3935647e-01 1.91e+03 9.99e+02   3.3 0.00e+00    -  0.00e+00 2.85e-07R  6
  13r 3.7958061e+00 8.82e+02 9.99e+02   3.3 1.54e+06    -  2.90e-05 8.48e-04f  1
  14  3.3516341e+00 7.55e+02 7.09e+01  -1.0 3.16e+02    -  1.45e-02 1.45e-01h  1
  15  3.2713557e+00 7.24e+02 6.28e+01  -1.0 2.70e+02    -  6.41e-02 4.08e-02h  1
  16  1.9830043e+00 4.46e+00 1.64e+02  -1.0 2.59e+02    -  1.06e-01 9.90e-01h  1
  17  2.1688479e+00 0.00e+00 1.26e+01  -1.0 2.53e+00    -  7.16e-01 9.91e-01h  1
  18  2.2989806e+00 0.00e+00 2.83e+02  -1.0 1.11e+00  -0.4 2.84e-01 1.00e+00f  1
  19  3.0647356e+00 1.04e+02 9.73e+04  -1.0 2.44e+01    -  8.23e-01 1.00e+00F  1
iter    objective    inf_pr   inf_du lg(mu)  ||d||  lg(rg) alpha_du alpha_pr  ls
  20  3.0725117e+00 8.62e+01 8.14e+04  -1.0 1.01e+00  -0.0 8.87e-01 1.63e-01h  1
  21  3.2183301e+00 1.66e+02 1.22e+05  -1.0 2.63e+00  -0.5 1.63e-01 1.00e+00h  1
  22  4.3746892e+00 9.35e+01 1.09e+05  -1.0 1.37e+01    -  2.13e-01 3.87e-01h  1
  23  7.1672589e+00 1.83e+01 6.32e+04  -1.0 5.59e+00    -  2.14e-02 1.00e+00f  1
  24  1.3107939e+01 0.00e+00 2.14e+04  -1.0 1.44e+01    -  2.97e-01 1.00e+00f  1
  25  1.3328036e+01 0.00e+00 5.62e+03  -1.0 5.43e+00  -1.0 1.00e+00 8.44e-01h  1
  26  1.3916448e+01 0.00e+00 4.51e+03  -1.0 2.46e+03  -1.4 1.38e-02 6.70e-04f  1
  27  1.5097814e+01 8.10e+04 1.40e+05  -1.0 8.11e+01  -0.1 1.00e+00 5.00e-01f  2
  28  1.3785574e+01 7.29e+04 1.26e+05  -1.0 7.79e+01    -  2.71e-01 1.00e-01h  2
  29  1.3602912e+01 7.17e+04 1.24e+05  -1.0 3.18e+01    -  9.78e-01 1.55e-02h  5
iter    objective    inf_pr   inf_du lg(mu)  ||d||  lg(rg) alpha_du alpha_pr  ls
  30  2.0079034e+00 9.47e+00 2.31e+01  -1.0 2.32e+01    -  3.61e-01 1.00e+00h  1
  31  3.0601192e+00 0.00e+00 2.86e+03  -1.0 6.14e+00    -  1.70e-02 1.00e+00f  1
  32  3.2014515e+00 0.00e+00 1.83e+04  -1.0 1.33e+00  -0.6 9.90e-01 1.00e+00h  1
  33  3.5500425e+00 0.00e+00 1.28e+04  -1.0 5.66e-01  -1.1 1.00e+00 1.00e+00f  1
  34  4.3293590e+00 0.00e+00 2.88e+01  -1.0 8.08e-01  -1.5 1.00e+00 1.00e+00f  1
  35  5.8582955e+00 0.00e+00 7.13e+01  -1.0 1.54e+00  -2.0 1.00e+00 1.00e+00f  1
  36  8.6561412e+00 0.00e+00 3.99e+01  -1.0 2.82e+00  -2.5 1.00e+00 1.00e+00f  1
  37  1.3493499e+01 0.00e+00 1.87e+01  -1.0 4.85e+00  -3.0 1.00e+00 1.00e+00f  1
  38  2.1495025e+01 0.00e+00 8.34e+00  -1.0 8.02e+00  -3.5 1.00e+00 1.00e+00f  1
  39  3.3920874e+01 0.00e+00 4.07e+00  -1.0 1.24e+01  -3.9 1.00e+00 1.00e+00f  1
iter    objective    inf_pr   inf_du lg(mu)  ||d||  lg(rg) alpha_du alpha_pr  ls
  40  5.1435449e+01 0.00e+00 2.33e+00  -1.0 1.75e+01  -4.4 1.00e+00 1.00e+00f  1
  41  7.2120160e+01 0.00e+00 1.39e+00  -1.0 2.07e+01  -4.9 1.00e+00 1.00e+00f  1
  42  7.9541793e+01 0.00e+00 3.89e-01  -1.0 7.45e+00  -4.5 1.00e+00 1.00e+00h  1
  43  5.2250722e+01 0.00e+00 9.78e-02  -1.7 2.74e+01  -4.9 1.00e+00 1.00e+00f  1
  44  3.8237198e+01 0.00e+00 3.35e-02  -1.7 1.41e+01  -4.5 1.00e+00 1.00e+00f  1
  45  3.3345119e+01 0.00e+00 7.92e-03  -1.7 4.95e+00  -4.1 1.00e+00 1.00e+00h  1
  46  2.4567892e+01 0.00e+00 1.68e-02  -1.7 8.92e+00  -4.6 1.00e+00 1.00e+00h  1
  47  2.4190768e+01 2.72e+04 4.90e+02  -1.7 5.24e+02    -  1.00e+00 6.25e-02h  5
  48  2.2361133e+01 1.64e+04 2.93e+02  -1.7 5.46e+01    -  5.20e-01 4.02e-01h  1
  49  2.1789144e+01 8.40e+03 1.47e+02  -1.7 1.14e+01    -  1.00e+00 5.00e-01h  2
iter    objective    inf_pr   inf_du lg(mu)  ||d||  lg(rg) alpha_du alpha_pr  ls
  50  2.1687957e+01 6.33e+03 1.10e+02  -1.7 1.73e+00    -  1.00e+00 2.50e-01h  3
  51  2.1609691e+01 4.78e+03 8.26e+01  -1.7 1.45e+00    -  1.00e+00 2.50e-01h  3
  52  2.1601944e+01 4.63e+03 8.00e+01  -1.7 1.14e+00    -  1.00e+00 3.12e-02h  6
  53  2.1598169e+01 4.56e+03 7.88e+01  -1.7 1.12e+00    -  1.00e+00 1.56e-02h  7
  54  2.1359475e+01 5.81e+02 1.85e+00  -1.7 1.10e+00    -  1.00e+00 1.00e+00h  1
  55  2.1179505e+01 1.92e+02 6.75e+00  -1.7 2.25e+00    -  1.00e+00 1.00e+00h  1
  56  2.0708503e+01 2.21e+01 6.05e+00  -1.7 4.84e+00    -  1.00e+00 1.00e+00h  1
  57  1.9431875e+01 0.00e+00 2.91e+00  -1.7 1.22e+01    -  5.91e-01 1.00e+00h  1
  58  1.9789675e+01 0.00e+00 1.55e+00  -1.7 6.18e+00    -  1.00e+00 5.00e-01h  2
  59  1.9810179e+01 0.00e+00 5.79e-01  -1.7 1.04e+01  -3.2 1.00e+00 5.00e-01h  2
iter    objective    inf_pr   inf_du lg(mu)  ||d||  lg(rg) alpha_du alpha_pr  ls
  60  1.9810956e+01 0.00e+00 1.76e+00  -1.7 1.17e+01  -1.9 1.00e+00 5.00e-01h  2
  61  1.9943072e+01 0.00e+00 9.33e-02  -1.7 5.86e+00    -  1.00e+00 1.00e+00h  1
  62  1.9944774e+01 0.00e+00 3.59e-02  -1.7 1.28e+00  -2.4 1.00e+00 1.00e+00h  1
  63  1.9949292e+01 0.00e+00 1.09e-01  -1.7 1.48e+00  -2.9 1.00e+00 1.00e+00h  1
  64  2.0001730e+01 0.00e+00 3.69e-02  -1.7 2.94e+00    -  1.00e+00 1.00e+00h  1
  65  2.0006900e+01 0.00e+00 3.42e-02  -1.7 2.04e+00  -3.3 1.00e+00 1.00e+00h  1
  66  2.0002893e+01 0.00e+00 1.51e-01  -1.7 8.34e+00  -3.8 1.00e+00 5.00e-01h  2
  67  2.0023126e+01 0.00e+00 1.79e-02  -1.7 8.93e-01  -4.3 1.00e+00 1.00e+00h  1
  68  2.0028810e+01 0.00e+00 1.29e-02  -1.7 7.90e-01  -3.9 1.00e+00 1.00e+00h  1
  69  2.8388538e+00 0.00e+00 4.78e-03  -2.5 1.85e+01    -  1.00e+00 1.00e+00f  1
iter    objective    inf_pr   inf_du lg(mu)  ||d||  lg(rg) alpha_du alpha_pr  ls
  70  2.8392378e+00 0.00e+00 1.75e-03  -2.5 6.43e-01    -  1.00e+00 1.00e+00h  1
  71  2.8348103e+00 0.00e+00 4.33e-05  -2.5 8.01e-02    -  1.00e+00 1.00e+00h  1
  72  1.5602919e-01 0.00e+00 2.41e-06  -3.8 2.68e+00    -  1.00e+00 9.99e-01f  1
  73  1.5435947e-01 0.00e+00 8.38e-02  -5.7 2.15e-01    -  1.00e+00 1.37e-02h  1
  74  9.6039934e-02 0.00e+00 7.25e-02  -5.7 1.97e-01    -  1.00e+00 5.92e-01f  1
  75  8.7336983e-02 3.42e-05 1.21e-01  -5.7 3.16e-02    -  9.91e-01 6.05e-01h  1
  76  8.7396344e-02 0.00e+00 1.99e-05  -5.7 5.66e-04    -  1.00e+00 1.00e+00h  1
  77  8.7216223e-02 0.00e+00 2.37e-08  -5.7 3.76e-04    -  1.00e+00 1.00e+00h  1
  78  8.7187516e-02 0.00e+00 9.05e-10  -5.7 6.28e-05    -  1.00e+00 1.00e+00h  1
  79  8.7160866e-02 0.00e+00 3.76e-02  -8.6 8.14e-05    -  1.00e+00 6.48e-01h  1
iter    objective    inf_pr   inf_du lg(mu)  ||d||  lg(rg) alpha_du alpha_pr  ls
  80  8.7159634e-02 0.00e+00 4.51e-10  -8.6 2.71e-06    -  1.00e+00 1.00e+00h  1

Number of Iterations....: 80

                                   (scaled)                 (unscaled)
Objective...............:   8.7159634498501934e-02    8.7159634498501934e-02
Dual infeasibility......:   4.5132952930515557e-10    4.5132952930515557e-10
Constraint violation....:   0.0000000000000000e+00    0.0000000000000000e+00
Complementarity.........:   3.7895020209852144e-09    3.7895020209852144e-09
Overall NLP error.......:   3.7895020209852144e-09    3.7895020209852144e-09


Number of objective function evaluations             = 118
Number of objective gradient evaluations             = 81
Number of equality constraint evaluations            = 0
Number of inequality constraint evaluations          = 127
Number of equality constraint Jacobian evaluations   = 0
Number of inequality constraint Jacobian evaluations = 82
Number of Lagrangian Hessian evaluations             = 80
Total CPU secs in IPOPT (w/o function evaluations)   =      0.110
Total CPU secs in NLP function evaluations           =      0.043

EXIT: Optimal Solution Found.

************************ CUTEst statistics ************************


 Package used            :  IPOPT
 Problem                 :  OET2      
 # variables             =               3
 # constraints           =            1002
 # objective functions   =        0.2000000E+03
 # objective gradients   =        0.8200000E+02
 # objective Hessians    =        0.8000000E+02
 # Hessian-vector prdct  =        0.0000000E+00
 # constraints functions =        0.2110000E+03
 # constraints gradients =        0.8400000E+02
 # constraints Hessians  =        0.8000000E+02
 Exit code               =               0
 Final f                 =   0.8715963E-01
 Set up time             =            0.03 seconds
 Solve time              =            0.35 seconds


******************************************************************

System Time =       0.1110000014 s.
